NAME: random-17-14113
TYPE: TSP
COMMENT: size=17 seed=14113
DIMENSION: 36
EDGE_WEIGHT_TYPE: EUC_2D
NODE_COORD_SECTION
+0 191 305
-0 191 305
+1 944 506
-1 511 954
+2 157 540
-2 156 135
+3 227 657
-3 693 514
+4 214 501
-4 3 35
+5 762 373
-5 253 984
+6 453 337
-6 28 898
+7 318 790
-7 952 206
+8 15 328
-8 494 625
+9 211 112
-9 485 841
+10 829 634
-10 303 64
+11 287 10
-11 406 488
+12 266 468
-12 514 215
+13 319 959
-13 194 567
+14 710 952
-14 233 501
+15 337 618
-15 995 918
+16 685 152
-16 269 944
+17 139 549
-17 972 466
PRECEDENCE_SECTION
+0 -0
+1 -1
+2 -2
+3 -3
+4 -4
+5 -5
+6 -6
+7 -7
+8 -8
+9 -9
+10 -10
+11 -11
+12 -12
+13 -13
+14 -14
+15 -15
+16 -16
+17 -17
EOF
